Problem:    
Rows:       256
Columns:    89 (72 integer, 72 binary)
Non-zeros:  924
Status:     INTEGER OPTIMAL
Objective:  value = 5.188677 (MINimum)

   No.   Row name        Activity     Lower bound   Upper bound
------ ------------    ------------- ------------- -------------
     1 r.5                   1029.19             0               
     2 r.6                  -1022.91      -1023.43               
     3 r.7                   5.18868             0               
     4 r.8                   1.08556      -1020.83               
     5 r.9                   1029.19             0               
     6 r.10                 -1021.18      -1023.37               
     7 r.11                  5.18868             0               
     8 r.12                  4.22398      -1021.26               
     9 r.13                  1029.19             0               
    10 r.14                 -1019.78      -1023.08               
    11 r.15                  5.18868             0               
    12 r.16                   3.3055      -1020.36               
    13 r.17                  1029.19             0               
    14 r.18                 -1020.69      -1023.51               
    15 r.19                  5.18868             0               
    16 r.20                   0.0509      -1021.32               
    17 r.21                  1029.19             0               
    18 r.22                 -1023.49      -1023.54               
    19 r.23                  5.18868             0               
    20 r.24                   0.0509      -1021.68               
    21 r.25                  1029.19             0               
    22 r.26                 -1021.81       -1022.9               
    23 r.27                  5.18868             0               
    24 r.28                  5.18868      -1018.05               
    25 r.29                  1029.19             0               
    26 r.30                 -1018.81      -1023.04               
    27 r.31                  5.18868             0               
    28 r.32                 -1017.19      -1021.42               
    29 r.33                  1029.19             0               
    30 r.34                 -1023.95      -1023.95               
    31 r.35                  5.18868             0               
    32 r.36                   0.0509      -1022.27               
    33 r.37                        1             1             = 
    34 r.38                        1             1             = 
    35 r.39                        1             1             = 
    36 r.40                        1             1             = 
    37 r.41                        1             1             = 
    38 r.42                        1             1             = 
    39 r.43                        1             1             = 
    40 r.44                        1             1             = 
    41 r.45                        2             2               
    42 r.46                       -2         -1025               
    43 r.47                 -1022.27      -1023.37               
    44 r.48                     1024             2               
    45 r.49                    -1024         -1025               
    46 r.50                  2051.14      -1021.26               
    47 r.51                        2             2               
    48 r.52                       -2         -1025               
    49 r.53                 -1020.86      -1023.08               
    50 r.54                     1024             2               
    51 r.55                    -1024         -1025               
    52 r.56                  2050.22      -1020.36               
    53 r.57                        2             2               
    54 r.58                       -2         -1025               
    55 r.59                 -1021.78      -1023.51               
    56 r.60                     1024             2               
    57 r.61                    -1024         -1025               
    58 r.62                  2046.97      -1021.32               
    59 r.63                        2             2               
    60 r.64                       -2         -1025               
    61 r.65                -0.573561      -1023.54               
    62 r.66                     1024             2               
    63 r.67                    -1024         -1025               
    64 r.68                  2046.97      -1021.68               
    65 r.69                  -1022.9       -1022.9               
    66 r.70                  4.10312      -1018.05               
    67 r.71                  -1022.9       -1022.9               
    68 r.72                  4.10312      -1018.05               
    69 r.73                        2             2               
    70 r.74                       -2         -1025               
    71 r.75                  -1019.9      -1023.04               
    72 r.76                     1024             2               
    73 r.77                    -1024         -1025               
    74 r.78                  1029.72      -1021.42               
    75 r.79                   0.4611             0               
    76 r.80                  1.03466             0               
    77 r.81                   0.4611             0               
    78 r.82                  1.03466             0               
    79 r.83                        2             2               
    80 r.84                       -2         -1025               
    81 r.85                  1022.27      0.573561               
    82 r.86                     1024             2               
    83 r.87                    -1024         -1025               
    84 r.88                  2044.86       3.16847               
    85 r.89                        2             2               
    86 r.90                       -2         -1025               
    87 r.91                 -1022.59      -1023.08               
    88 r.92                     1024             2               
    89 r.93                    -1024         -1025               
    90 r.94                  2047.08      -1020.36               
    91 r.95                        2             2               
    92 r.96                       -2         -1025               
    93 r.97                 -1023.51      -1023.51               
    94 r.98                     1024             2               
    95 r.99                    -1024         -1025               
    96 r.100                 2043.83      -1021.32               
    97 r.101                       2             2               
    98 r.102                      -2         -1025               
    99 r.103                -2.30638      -1023.54               
   100 r.104                    1024             2               
   101 r.105                   -1024         -1025               
   102 r.106                 2043.83      -1021.68               
   103 r.107                       2             2               
   104 r.108                      -2         -1025               
   105 r.109               -0.628844       -1022.9               
   106 r.110                    1024             2               
   107 r.111                   -1024         -1025               
   108 r.112                 2048.96      -1018.05               
   109 r.113                -1021.63      -1023.04               
   110 r.114                -1020.01      -1021.42               
   111 r.115                -1023.04      -1023.04               
   112 r.116                -1021.42      -1021.42               
   113 r.117                 2.13863             0               
   114 r.118                 4.17308             0               
   115 r.119                 2.13863             0               
   116 r.120                 4.17308             0               
   117 r.121                       2             2               
   118 r.122                      -2         -1025               
   119 r.123                 1020.86      0.573561               
   120 r.124                    1024             2               
   121 r.125                   -1024         -1025               
   122 r.126                 2045.78       3.16847               
   123 r.127                       2             2               
   124 r.128                      -2         -1025               
   125 r.129                 1022.59      0.628844               
   126 r.130                    1024             2               
   127 r.131                   -1024         -1025               
   128 r.132                 2048.92       2.73673               
   129 r.133                       0             0               
   130 r.134                       0             0               
   131 r.135                  3.2546             0               
   132 r.136                  3.2546             0               
   133 r.137                       2             2               
   134 r.138                      -2         -1025               
   135 r.139                -3.71198      -1023.54               
   136 r.140                    1024             2               
   137 r.141                   -1024         -1025               
   138 r.142                 2044.75      -1021.68               
   139 r.143                       2             2               
   140 r.144                      -2         -1025               
   141 r.145                -2.03444       -1022.9               
   142 r.146                    1024             2               
   143 r.147                   -1024         -1025               
   144 r.148                 2049.88      -1018.05               
   145 r.149                -1023.04      -1023.04               
   146 r.150                -1021.42      -1021.42               
   147 r.151                -1022.12      -1023.04               
   148 r.152                 -1020.5      -1021.42               
   149 r.153                  3.2546             0               
   150 r.154                  3.2546             0               
   151 r.155                  3.2546             0               
   152 r.156                  3.2546             0               
   153 r.157                       2             2               
   154 r.158                      -2         -1025               
   155 r.159                 1021.78      0.573561               
   156 r.160                    1024             2               
   157 r.161                   -1024         -1025               
   158 r.162                 2049.03       3.16847               
   159 r.163                       2             2               
   160 r.164                      -2         -1025               
   161 r.165                 1023.51      0.628844               
   162 r.166                    1024             2               
   163 r.167                   -1024         -1025               
   164 r.168                 2052.17       2.73673               
   165 r.169                       2             2               
   166 r.170                      -2         -1025               
   167 r.171                 -2.7935      -1023.54               
   168 r.172                    1024             2               
   169 r.173                   -1024         -1025               
   170 r.174                    2048      -1021.68               
   171 r.175                       2             2               
   172 r.176                      -2         -1025               
   173 r.177                -1.11597       -1022.9               
   174 r.178                    1024             2               
   175 r.179                   -1024         -1025               
   176 r.180                 2053.14      -1018.05               
   177 r.181                -1022.12      -1023.04               
   178 r.182                 -1020.5      -1021.42               
   179 r.183                -1018.86      -1023.04               
   180 r.184                -1017.24      -1021.42               
   181 r.185                 2.76748             0               
   182 r.186                       0             0               
   183 r.187                 2.76748             0               
   184 r.188                       0             0               
   185 r.189                       2             2               
   186 r.190                      -2         -1025               
   187 r.191                0.573561      0.573561               
   188 r.192                    1024             2               
   189 r.193                   -1024         -1025               
   190 r.194                 2049.03       3.16847               
   191 r.195                       2             2               
   192 r.196                      -2         -1025               
   193 r.197                 2.30638      0.628844               
   194 r.198                    1024             2               
   195 r.199                   -1024         -1025               
   196 r.200                 2052.17       2.73673               
   197 r.201                       2             2               
   198 r.202                      -2         -1025               
   199 r.203                 3.71198      0.918475               
   200 r.204                    1024             2               
   201 r.205                   -1024         -1025               
   202 r.206                 2051.25       3.63535               
   203 r.207                       2             2               
   204 r.208                      -2         -1025               
   205 r.209                  2.7935      0.487125               
   206 r.210                    1024             2               
   207 r.211                   -1024         -1025               
   208 r.212                    2048       2.67661               
   209 r.213                -1022.32       -1022.9               
   210 r.214                 4.67668      -1018.05               
   211 r.215                -1021.86       -1022.9               
   212 r.216                 5.13778      -1018.05               
   213 r.217                -1019.32      -1023.04               
   214 r.218                 -1017.7      -1021.42               
   215 r.219                -1018.86      -1023.04               
   216 r.220                -1017.24      -1021.42               
   217 r.221                       0             0               
   218 r.222                       0             0               
   219 r.223                       0             0               
   220 r.224                       0             0               
   221 r.225                       2             2               
   222 r.226                      -2         -1025               
   223 r.227                0.628844      0.628844               
   224 r.228                    1024             2               
   225 r.229                   -1024         -1025               
   226 r.230                 2047.04       2.73673               
   227 r.231                       2             2               
   228 r.232                      -2         -1025               
   229 r.233                 2.03444      0.918475               
   230 r.234                    1024             2               
   231 r.235                   -1024         -1025               
   232 r.236                 2046.12       3.63535               
   233 r.237                       2             2               
   234 r.238                      -2         -1025               
   235 r.239                 1.11597      0.487125               
   236 r.240                    1024             2               
   237 r.241                   -1024         -1025               
   238 r.242                 2042.86       2.67661               
   239 r.243                       2             2               
   240 r.244                      -2         -1025               
   241 r.245                   -1021      -1023.04               
   242 r.246                    1024             2               
   243 r.247                   -1024         -1025               
   244 r.248                 1025.62      -1021.42               
   245 r.249                       2             2               
   246 r.250                      -2         -1025               
   247 r.251                  1019.9      0.573561               
   248 r.252                    1024             2               
   249 r.253                   -1024         -1025               
   250 r.254                 3066.28       3.16847               
   251 r.255                       2             2               
   252 r.256                      -2         -1025               
   253 r.257                    1021       1.10397               
   254 r.258                    1024             2               
   255 r.259                   -1024         -1025               
   256 r.260                 3070.38       5.94566               

   No. Column name       Activity     Lower bound   Upper bound
------ ------------    ------------- ------------- -------------
     1 tt                    5.18868             0               
     2 s_1_1        *              1             0             1 
     3 t_1_1                 4.10312             0               
     4 s_1_6        *              1             0             1 
     5 s_2_1        *              0             0             1 
     6 t_2_1                 4.10312             0               
     7 s_2_6        *              0             0             1 
     8 s_1_2        *              1             0             1 
     9 t_1_2                  2.3703             0               
    10 s_1_7        *              1             0             1 
    11 s_2_2        *              0             0             1 
    12 t_2_2                  0.9647             0               
    13 s_2_7        *              0             0             1 
    14 s_1_3        *              1             0             1 
    15 t_1_3                  0.9647             0               
    16 s_2_3        *              0             0             1 
    17 t_2_3                 1.88317             0               
    18 s_1_4        *              1             0             1 
    19 t_1_4                 1.88317             0               
    20 s_2_4        *              0             0             1 
    21 t_2_4                 5.13778             0               
    22 s_1_5        *              1             0             1 
    23 t_1_5                 4.67668             0               
    24 s_2_5        *              0             0             1 
    25 t_2_5                 5.13778             0               
    26 t_1_6                 2.99914             0               
    27 t_2_6                       0             0               
    28 t_1_7                       0             0               
    29 t_2_7                 1022.38             0               
    30 s_1_8        *              1             0             1 
    31 t_1_8                 5.13778             0               
    32 s_2_8        *              0             0             1 
    33 t_2_8                 5.13778             0               
    34 r_1_1_2      *              0             0             1 
    35 u_1_1_2      *              1             0             1 
    36 r_2_1_2      *              1             0             1 
    37 u_2_1_2      *              0             0             1 
    38 r_1_1_3      *              0             0             1 
    39 u_1_1_3      *              1             0             1 
    40 r_2_1_3      *              1             0             1 
    41 u_2_1_3      *              0             0             1 
    42 r_1_1_4      *              0             0             1 
    43 u_1_1_4      *              1             0             1 
    44 r_2_1_4      *              1             0             1 
    45 u_2_1_4      *              0             0             1 
    46 r_1_1_5      *              0             0             1 
    47 u_1_1_5      *              0             0             1 
    48 r_2_1_5      *              1             0             1 
    49 u_2_1_5      *              0             0             1 
    50 r_1_1_7      *              0             0             1 
    51 u_1_1_7      *              1             0             1 
    52 r_2_1_7      *              1             0             1 
    53 u_2_1_7      *              0             0             1 
    54 r_1_2_3      *              0             0             1 
    55 u_1_2_3      *              1             0             1 
    56 r_2_2_3      *              1             0             1 
    57 u_2_2_3      *              0             0             1 
    58 r_1_2_4      *              0             0             1 
    59 u_1_2_4      *              1             0             1 
    60 r_2_2_4      *              1             0             1 
    61 u_2_2_4      *              0             0             1 
    62 r_1_2_5      *              0             0             1 
    63 u_1_2_5      *              0             0             1 
    64 r_2_2_5      *              1             0             1 
    65 u_2_2_5      *              0             0             1 
    66 r_1_2_6      *              0             0             1 
    67 u_1_2_6      *              0             0             1 
    68 r_2_2_6      *              1             0             1 
    69 u_2_2_6      *              0             0             1 
    70 r_1_3_5      *              0             0             1 
    71 u_1_3_5      *              0             0             1 
    72 r_2_3_5      *              1             0             1 
    73 u_2_3_5      *              0             0             1 
    74 r_1_3_6      *              0             0             1 
    75 u_1_3_6      *              0             0             1 
    76 r_2_3_6      *              1             0             1 
    77 u_2_3_6      *              0             0             1 
    78 r_1_4_5      *              0             0             1 
    79 u_1_4_5      *              0             0             1 
    80 r_2_4_5      *              1             0             1 
    81 u_2_4_5      *              0             0             1 
    82 r_1_4_6      *              0             0             1 
    83 u_1_4_6      *              0             0             1 
    84 r_2_4_6      *              1             0             1 
    85 u_2_4_6      *              0             0             1 
    86 r_1_6_7      *              0             0             1 
    87 u_1_6_7      *              1             0             1 
    88 r_2_6_7      *              1             0             1 
    89 u_2_6_7      *              0             0             1 

Integer feasibility conditions:

KKT.PE: max.abs.err = 2.27e-13 on row 2
        max.rel.err = 1.11e-16 on row 6
        High quality

KKT.PB: max.abs.err = 4.44e-16 on row 223
        max.rel.err = 2.73e-16 on row 223
        High quality

End of output
